# avogadro generated ORCA file
# C6H6 | Geometry Optimization | revPBE/def2-TZVP
# 
! Opt revPBE def2-TZVP 

%maxcore 16384

%pal
   nprocs 1
end

%output
   print[p_mos] 1
   print[p_basis] 2
end

* xyz 0 1
   C     -4.802823    3.177262    0.117742
   C     -3.463552    3.017147   -0.230514
   C     -4.945518    0.818642    0.578639
   H     -5.261586    4.161857    0.071151
   H     -5.528629   -0.037933    0.895810
   C     -2.866081    1.758494   -0.174631
   H     -2.892885    3.880870   -0.544900
   H     -6.593877    2.176002    0.801390
   C     -3.608972    0.660006    0.229927
   H     -1.825550    1.610545   -0.441123
   C     -5.545996    2.072389    0.524412
   H     -3.136144   -0.315465    0.270051
*


