# avogadro generated ORCA file
# C4H6 | Geometry Optimization | revPBE/def2-TZVP
# 
! Opt revPBE def2-TZVP 

%maxcore 16384

%pal
   nprocs 1
end

%output
   print[p_mos] 1
   print[p_basis] 2
end

* xyz 0 1
   C     -5.072187    1.095981    0.009653
   C     -3.809530    0.653094    0.089486
   H     -5.297765    2.145085   -0.166263
   H     -5.913522    0.415652    0.116745
   C     -2.645222    1.515213   -0.046600
   H     -3.603743   -0.402918    0.264090
   C     -1.382547    1.067263    0.002408
   H     -2.850789    2.574677   -0.196323
   H     -1.157007    0.013530    0.148383
   H     -0.541137    1.747553   -0.105316
*


