# avogadro generated ORCA file
# CO2 | Geometry Optimization | revPBE/def2-TZVP
# 
! Opt revPBE def2-TZVP 

%maxcore 16384

%pal
   nprocs 1
end

%output
   print[p_mos] 1
   print[p_basis] 2
end

* xyz 0 1
   C     -0.610432    0.776256    0.000003
   O      0.585842    0.781356    0.000005
   O     -1.806856    0.771119    0.000001
*


