# avogadro generated ORCA file
# O2 | Geometry Optimization | revPBE/def2-TZVP
# 
! Opt revPBE def2-TZVP 

%maxcore 16384

%pal
   nprocs 1
end

%output
   print[p_mos] 1
   print[p_basis] 2
end

* xyz 0 1
   O     -2.848179    0.937171    0.000000
   O     -1.445286    0.660056    0.000000
*


